\ Model cutting stock pricing problem
\ LP format - for model browsing. Use MPS format to capture full model detail.
Minimize
 
Subject To
 R0: 7 x_0 + 3 x_1 + 4 x_2 <= 11
Bounds
Generals
 x_0 x_1 x_2
End
